\ SCIP STATISTICS
\   Problem name     : t_markshare_4_0
\   Variables        : 34 (30 binary, 0 integer, 0 implicit integer, 4 continuous)
\   Constraints      : 4
Minimize
 Obj: +1 t_s3 +1 t_s4 +1 t_s1 +1 t_s2
Subject to
 C3_: +37 t_x29 +46 t_x1 +63 t_x2 +13 t_x3 +97 t_x4 +14 t_x5 +45 t_x6 +32 t_x7 +96 t_x8 +36 t_x9 +40 t_x10
  +10 t_x11 +96 t_x12 +99 t_x13 +58 t_x14 +87 t_x15 +15 t_x16 +91 t_x17 +65 t_x18 +6 t_x19 +96 t_x20 +97 t_x21
  +79 t_x22 +81 t_x23 +57 t_x24 +28 t_x25 +97 t_x26 +58 t_x27 +44 t_x28 +93 t_x30 +1 t_s3 = +888
 C2_: +58 t_x29 +93 t_x1 +44 t_x2 +79 t_x3 +12 t_x4 +8 t_x5 +95 t_x6 +2 t_x7 +15 t_x8 +38 t_x9 +15 t_x10
  +53 t_x11 +88 t_x12 +43 t_x13 +26 t_x14 +31 t_x15 +77 t_x16 +10 t_x17 +77 t_x18 +71 t_x19 +22 t_x20
  +76 t_x21 +41 t_x22 +65 t_x23 +93 t_x24 +50 t_x25 +69 t_x26 +44 t_x27 +61 t_x28 +63 t_x30 +1 t_s2 = +759
 C1_: +27 t_x29 +17 t_x1 +75 t_x2 +9 t_x3 +87 t_x4 +58 t_x5 +79 t_x6 +69 t_x7 +37 t_x8 +88 t_x9 +75 t_x10
  +45 t_x11 +35 t_x12 +73 t_x13 +26 t_x14 +39 t_x15 +78 t_x16 +85 t_x17 +58 t_x18 +72 t_x19 +8 t_x20 +46 t_x21
  +11 t_x22 +55 t_x23 +39 t_x24 +57 t_x25 +96 t_x26 +87 t_x27 +16 t_x28 +26 t_x30 +1 t_s1 = +786
 C4_: +59 t_x29 +2 t_x1 +77 t_x2 +73 t_x3 +59 t_x4 +43 t_x5 +64 t_x6 +75 t_x7 +6 t_x8 +5 t_x9 +78 t_x10
  +71 t_x11 +12 t_x12 +30 t_x13 +7 t_x14 +69 t_x15 +36 t_x16 +73 t_x17 +19 t_x18 +15 t_x19 +16 t_x20 +84 t_x21
  +55 t_x22 +32 t_x23 +53 t_x24 +43 t_x25 +21 t_x26 +73 t_x27 +48 t_x30 +1 t_s4 = +649
 newcut_1: +1.0 t_x29 +1.0 t_x1 +1.0 t_x4 +1.0 t_x5 +1.0 t_x6 +1.0 t_x7 +1.0 t_x13 +1.0 t_x17 +1.0 t_x21 +1.0 t_x24 +1.0 t_x25 +1.0 t_x26 +1.0 t_x30 <= 12.0
 newcut_2: +0.7396396123954567 t_x29 +0.519415922585143 t_x1 +0.14947877700255652 t_x2 +0.7396396123954567 t_x3 +0.7396396123954567 t_x4 +0.7396396123954567 t_x5 +0.7396396123954567 t_x6 +0.7396396123954567 t_x7 -0.4284483832365761 t_x8 -0.5091547504534093 t_x9 +0.19933465565395492 t_x10 +0.42125018676259735 t_x11 -0.1313613550417061 t_x12 +0.49891235814673063 t_x13 -0.17116664415849395 t_x14 +0.08298107352660412 t_x15 +0.7396396123954567 t_x17 -0.02649280967448174 t_x18 +1.0 t_x21 +0.7396396123954567 t_x24 +0.7396396123954567 t_x25 +0.20595999842028567 t_x26 +0.7396396123954567 t_x30 -0.0037248954474666173 t_s3 -0.006429259298844198 t_s1 <= 8.141405178315813
 newcut_3: -1.0 t_x29 -1.0 t_x2 -1.0 t_x4 -1.0 t_x8 -1.0 t_x9 -1.0 t_x10 -0.3448275862068966 t_x11 -1.0 t_x12 -1.0 t_x13 -1.0 t_x14 -1.0 t_x15 -0.5172413793103449 t_x16 -0.793103448275862 t_x17 -1.0 t_x18 -1.0 t_x20 -1.0 t_x21 -1.0 t_x22 -1.0 t_x23 -1.0 t_x26 -1.0 t_x27 -0.8620689655172413 t_x30 -0.034482758620689655 t_s3 <= -6.655172413793103
 newcut_4: +0.641705970879094 t_x29 +0.641705970879094 t_x1 +0.641705970879094 t_x3 -0.641705970879094 t_x5 +0.641705970879094 t_x6 -0.641705970879094 t_x8 -0.641705970879094 t_x9 +0.4298262326345901 t_x11 -0.641705970879094 t_x14 +0.8423037254912656 t_x21 +1.0 t_x24 +0.641705970879094 t_x25 +0.641705970879094 t_x28 +0.641705970879094 t_x30 -0.014736024929456549 t_s3 -0.05563194032039244 t_s1 <= 5.050833579886736
 newcut_5: -0.423196643378953 t_x1 +0.309297593918819 t_x2 -0.49862141316699476 t_x3 +0.8777241057446975 t_x4 +0.30109635459235445 t_x5 +0.18501630297875837 t_x6 +0.8583347547603987 t_x7 +0.7664304136431728 t_x10 -0.7302462109097686 t_x12 +0.7044712962546188 t_x13 +1.0 t_x17 -0.19672027420907445 t_x18 +0.2619910205293554 t_x21 +0.4029355825047598 t_x25 +0.5235411025378004 t_x26 +0.438091027399586 t_x27 -0.016312060097936325 t_s2 <= 4.390817521931436
 newcut_6: -1.0 t_x29 -1.0 t_x2 -1.0 t_x3 -1.0 t_x5 -0.24999999999999933 t_x7 -1.0 t_x8 -1.0 t_x9 -1.0 t_x10 -1.0 t_x11 -1.0 t_x12 -1.0 t_x14 -1.0 t_x15 -1.0 t_x16 -1.0 t_x18 -1.0 t_x20 -1.0 t_x21 -1.0 t_x22 -1.0 t_x23 -1.0 t_x27 -0.25 t_s4 <= -3.249999999999999
 newcut_7: +0.9621967307316364 t_x29 +0.9621967307316364 t_x1 +0.9621967307316364 t_x4 +0.9621967307316364 t_x6 +0.9621967307316364 t_x7 -0.14167823574960445 t_x8 -0.3581487815898886 t_x11 +0.9621967307316364 t_x13 -0.8841239769527534 t_x14 +0.9621967307316364 t_x17 +0.9621967307316364 t_x19 +0.9621967307316364 t_x21 -0.3410112095216705 t_x22 +0.9621967307316364 t_x24 +0.9621967307316364 t_x25 +0.9621967307316364 t_x26 +0.9621967307316364 t_x30 -1.0 t_s4 <= 11.546360768779635
 newcut_8: -1.0 t_x2 -1.0 t_x3 -1.0 t_x5 -1.0 t_x8 -1.0 t_x10 -1.0 t_x11 -1.0 t_x12 -1.0 t_x14 -1.0 t_x15 -1.0 t_x16 -1.0 t_x18 -1.0 t_x21 -1.0 t_x22 -1.0 t_x23 -1.0 t_x27 -0.5 t_s4 <= -2.0
 newcut_9: +1.0 t_x29 +1.0 t_x1 +1.0 t_x4 +1.0 t_x6 +1.0 t_x7 +1.0 t_x13 +1.0 t_x17 +1.0 t_x19 +1.0 t_x20 +1.0 t_x21 +1.0 t_x24 +1.0 t_x26 +1.0 t_x30 <= 12.0
Bounds
 0 <= t_x29 <= 1
 0 <= t_x1 <= 1
 0 <= t_x2 <= 1
 0 <= t_x3 <= 1
 0 <= t_x4 <= 1
 0 <= t_x5 <= 1
 0 <= t_x6 <= 1
 0 <= t_x7 <= 1
 0 <= t_x8 <= 1
 0 <= t_x9 <= 1
 0 <= t_x10 <= 1
 0 <= t_x11 <= 1
 0 <= t_x12 <= 1
 0 <= t_x13 <= 1
 0 <= t_x14 <= 1
 0 <= t_x15 <= 1
 0 <= t_x16 <= 1
 0 <= t_x17 <= 1
 0 <= t_x18 <= 1
 0 <= t_x19 <= 1
 0 <= t_x20 <= 1
 0 <= t_x21 <= 1
 0 <= t_x22 <= 1
 0 <= t_x23 <= 1
 0 <= t_x24 <= 1
 0 <= t_x25 <= 1
 0 <= t_x26 <= 1
 0 <= t_x27 <= 1
 0 <= t_x28 <= 1
 0 <= t_x30 <= 1
Binaries
 t_x29 t_x1 t_x2 t_x3 t_x4 t_x5 t_x6 t_x7 t_x8 t_x9 t_x10 t_x11 t_x12 t_x13 t_x14 t_x15 t_x16 t_x17 t_x18
 t_x19 t_x20 t_x21 t_x22 t_x23 t_x24 t_x25 t_x26 t_x27 t_x28 t_x30
End
